************************************************************************
file with basedata            : cm252_.bas
initial value random generator: 1923506011
************************************************************************
projects                      :  1
jobs (incl. supersource/sink ):  18
horizon                       :  117
RESOURCES
  - renewable                 :  2   R
  - nonrenewable              :  2   N
  - doubly constrained        :  0   D
************************************************************************
PROJECT INFORMATION:
pronr.  #jobs rel.date duedate tardcost  MPM-Time
    1     16      0       26        2       26
************************************************************************
PRECEDENCE RELATIONS:
jobnr.    #modes  #successors   successors
   1        1          3           2   3   4
   2        2          2           8  12
   3        2          3           9  13  15
   4        2          3           5   9  13
   5        2          2           6   7
   6        2          2          10  11
   7        2          3          10  12  15
   8        2          3           9  13  15
   9        2          2          11  14
  10        2          1          14
  11        2          2          16  17
  12        2          2          14  17
  13        2          1          17
  14        2          1          16
  15        2          1          18
  16        2          1          18
  17        2          1          18
  18        1          0        
************************************************************************
REQUESTS/DURATIONS:
jobnr. mode duration  R 1  R 2  N 1  N 2
------------------------------------------------------------------------
  1      1     0       0    0    0    0
  2      1     6       9    0    5    4
         2     9       0    8    2    4
  3      1     3       0    7    7   10
         2     9       0    5    6   10
  4      1     4       7    0    8    3
         2     5       4    0    5    2
  5      1     5       0    5    6    7
         2     6       0    4    3    3
  6      1     4       9    0    4    6
         2     7       9    0    3    6
  7      1     5       8    0    6    5
         2     9       3    0    4    5
  8      1     1      10    0   10    4
         2     2       7    0    9    4
  9      1     3       0   10    4    9
         2     5       0    7    2    8
 10      1    10       0    5   10    8
         2    10       8    0    5    7
 11      1     6       0    8    6    4
         2    10       0    1    5    2
 12      1     3       8    0    4    4
         2     6       5    0    1    3
 13      1     5       6    0    4    3
         2     7       0    9    1    3
 14      1     1       5    0    6    6
         2     9       5    0    6    5
 15      1     1       0    5    9    3
         2     8       0    5    7    3
 16      1     1       9    0    8    7
         2     7       9    0    7    6
 17      1     5       0    2    3    7
         2     8       3    0    2    6
 18      1     0       0    0    0    0
************************************************************************
RESOURCEAVAILABILITIES:
  R 1  R 2  N 1  N 2
   23   27   92   87
************************************************************************
